p tw 43 45
1 2
2 13
3 4
3 12
4 5
5 6
6 7
7 8
8 9
9 10
10 11
11 12
12 14
13 24
14 15
15 16
16 17
17 18
18 19
18 28
19 20
20 21
21 22
22 23
23 25
24 35
25 26
26 27
27 37
28 29
29 30
30 31
31 32
32 33
33 34
34 36
35 39
36 37
37 38
39 40
40 41
40 42
41 37
42 43
43 3
